analyze/results_flowersnark/final_miplib_symretope_if_extended_generating_set_cpx_v802__settings_final_nosym_norestarts__3__mspp16.mps.gz.out
FILENAME:   /home/mcs001/s132664/testsets/IP/miplib2010/mspp16.mps.gz
SETTINGS:   settings_final_nosym_norestarts
TIMELIMIT:  7200
OUTPUTNAME: final_miplib_symretope_if_extended_generating_set_cpx_v802__settings_final_nosym_norestarts__3__
BINNAME:    bin/sbcs.linux.x86_64.gnu.opt.cpx
BASENAME:   mspp16.mps.gz
SEED:       3
@01 /home/mcs001/s132664/testsets/IP/miplib2010/mspp16.mps.gz ===========
@02 mspp16.mps.gz
@03 1686658471
SCIP version 8.0.2 [precision: 8 byte] [memory: block] [mode: optimized] [LP solver: CPLEX 20.1.0.0] [GitHash: 5f0473c]
Copyright (C) 2002-2022 Konrad-Zuse-Zentrum fuer Informationstechnik Berlin (ZIB)

Symretope propagation methods - (c) Jasper van Doornmalen, Christopher Hojny.
[GitHash: 2fd0484]

reading parameter file <../settings/settings_final_nosym_norestarts.set> ...

Changed settings:
limits/time = 7200
limits/restarts = 0
misc/usesymmetry = 0
randomization/randomseedshift = 3
constraints/orbisack/sepafreq = -1
constraints/symresack/sepafreq = -1
propagating/symmetry/detectsubgroups = FALSE
propagating/symmetry/usesymretopes = FALSE
propagating/symmetry/relabelsymretopes = 0
propagating/symmetry/ofsymcomptiming = 0
constraints/symretope/sepafreq = -1
constraints/symretope/peek = FALSE


solving problem ...

original problem has 29280 variables (29280 bin, 0 int, 0 impl, 0 cont) and 561657 constraints
presolving:
(round 1, fast)       25215 del vars, 36781 del conss, 0 add conss, 25215 chg bounds, 991 chg sides, 0 chg coeffs, 0 upgd conss, 0 impls, 1726 clqs
(round 2, exhaustive) 25215 del vars, 36843 del conss, 0 add conss, 25215 chg bounds, 991 chg sides, 0 chg coeffs, 524798 upgd conss, 0 impls, 1726 clqs
(round 3, medium)     25215 del vars, 37053 del conss, 210 add conss, 25215 chg bounds, 1201 chg sides, 3360 chg coeffs, 524798 upgd conss, 0 impls, 1935 clqs
   (53.2s) sparsify aborted: 480/27555495 (0.0%) nonzeros canceled - in total 480 canceled nonzeros, 480 changed coefficients, 0 added nonzeros
   (95.7s) probing: 136/4065 (3.3%) - 0 fixings, 0 aggregations, 900 implications, 0 bound changes
   (95.7s) probing aborted: 50/50 successive totally useless probings
presolving (4 rounds: 4 fast, 3 medium, 2 exhaustive):
 25215 deleted vars, 37053 deleted constraints, 210 added constraints, 25215 tightened bounds, 0 added holes, 1201 changed sides, 4080 changed coefficients
 0 implications, 2835 cliques
presolved problem has 4065 variables (4065 bin, 0 int, 0 impl, 0 cont) and 524814 constraints
 522862 constraints of type <knapsack>
   1936 constraints of type <setppc>
     16 constraints of type <linear>
transformed objective value is always integral (scale: 11)
Presolving Time: 97.00

 time | node  | left  |LP iter|LP it/n|mem/heur|mdpt |vars |cons |rows |cuts |sepa|confs|strbr|  dualbound   | primalbound  |  gap   | compl. 
  237s|     1 |     0 |     2 |     - |  8496M |   0 |4065 | 524k| 524k|   0 |  0 |  67 |   0 | 3.410000e+02 |      --      |    Inf | unknown
r 239s|     1 |     0 |     2 |     - |shifting|   0 |4065 | 524k| 524k|   0 |  0 |  67 |   0 | 3.410000e+02 | 3.740000e+02 |   9.68%| unknown
  243s|     1 |     0 |    13 |     - |  8555M |   0 |4065 | 524k| 524k|   4 |  1 |  67 |   0 | 3.410000e+02 | 3.740000e+02 |   9.68%| unknown
r 245s|     1 |     0 |    13 |     - |shifting|   0 |4065 | 524k| 524k|   4 |  1 |  67 |   0 | 3.410000e+02 | 3.630000e+02 |   6.45%| unknown
  249s|     1 |     0 |    42 |     - |  8612M |   0 |4065 | 524k| 524k|  10 |  2 |  67 |   0 | 3.410000e+02 | 3.630000e+02 |   6.45%| unknown
  255s|     1 |     0 |    67 |     - |  8669M |   0 |4065 | 524k| 524k|  15 |  3 |  67 |   0 | 3.410000e+02 | 3.630000e+02 |   6.45%| unknown
  261s|     1 |     0 |    91 |     - |  8725M |   0 |4065 | 524k| 524k|  21 |  4 |  67 |   0 | 3.410000e+02 | 3.630000e+02 |   6.45%| unknown
  266s|     1 |     0 |   112 |     - |  8782M |   0 |4065 | 524k| 524k|  28 |  5 |  67 |   0 | 3.410000e+02 | 3.630000e+02 |   6.45%| unknown
  271s|     1 |     0 |   139 |     - |  8839M |   0 |4065 | 524k| 524k|  34 |  6 |  67 |   0 | 3.410000e+02 | 3.630000e+02 |   6.45%| unknown
  276s|     1 |     0 |   164 |     - |  8895M |   0 |4065 | 524k| 524k|  41 |  7 |  67 |   0 | 3.410000e+02 | 3.630000e+02 |   6.45%| unknown
  281s|     1 |     0 |   198 |     - |  8952M |   0 |4065 | 524k| 524k|  48 |  8 |  67 |   0 | 3.410000e+02 | 3.630000e+02 |   6.45%| unknown
  287s|     1 |     0 |   226 |     - |  9009M |   0 |4065 | 524k| 524k|  56 |  9 |  67 |   0 | 3.410000e+02 | 3.630000e+02 |   6.45%| unknown
  292s|     1 |     0 |   269 |     - |  9066M |   0 |4065 | 524k| 524k|  63 | 10 |  67 |   0 | 3.410000e+02 | 3.630000e+02 |   6.45%| unknown
  304s|     1 |     0 |   304 |     - |  9122M |   0 |4065 | 524k| 524k|  71 | 11 |  67 |   0 | 3.410000e+02 | 3.630000e+02 |   6.45%| unknown
  403s|     1 |     2 |   347 |     - |  9133M |   0 |4065 | 524k| 524k|  71 | 11 |  68 |  14 | 3.410000e+02 | 3.630000e+02 |   6.45%| unknown
 time | node  | left  |LP iter|LP it/n|mem/heur|mdpt |vars |cons |rows |cuts |sepa|confs|strbr|  dualbound   | primalbound  |  gap   | compl. 
r2352s|    19 |     2 |  3011 | 150.4 |shifting|  10 |4065 | 525k| 524k|  87 |  5 |1348 |1231 | 3.410000e+02 | 3.630000e+02 |   6.45%|  60.91%

SCIP Status        : problem is solved [optimal solution found]
Solving Time (sec) : 4826.33
Solving Nodes      : 47
Primal Bound       : +3.63000000000000e+02 (53 solutions)
Dual Bound         : +3.63000000000000e+02
Gap                : 0.00 %
SCIP Status        : problem is solved [optimal solution found]
Total Time         :    4861.34
  solving          :    4826.33
  presolving       :      97.00 (included in solving)
  reading          :      35.01
  copying          :       4.54 (2 #copies) (minimal 2.25, maximal 2.29, average 2.27)
Original Problem   :
  Problem name     : mspp16
  Variables        : 29280 (29280 binary, 0 integer, 0 implicit integer, 0 continuous)
  Constraints      : 561657 initial, 561657 maximal
  Objective        : minimize, 4065 non-zeros (abs.min = 11, abs.max = 11)
Presolved Problem  :
  Problem name     : t_mspp16
  Variables        : 4065 (4065 binary, 0 integer, 0 implicit integer, 0 continuous)
  Constraints      : 524814 initial, 527083 maximal
  Objective        : minimize, 3585 non-zeros (abs.min = 1, abs.max = 1)
  Nonzeros         : 27555015 constraint, 15038 clique table
Presolvers         :   ExecTime  SetupTime  Calls  FixedVars   AggrVars   ChgTypes  ChgBounds   AddHoles    DelCons    AddCons   ChgSides   ChgCoefs
  boundshift       :       0.00       0.00      0          0          0          0          0          0          0          0          0          0
  convertinttobin  :       0.00       0.00      0          0          0          0          0          0          0          0          0          0
  domcol           :       2.71       0.00      1          0          0          0          0          0          0          0          0          0
  dualagg          :       0.00       0.00      0          0          0          0          0          0          0          0          0          0
  dualcomp         :       0.00       0.00      0          0          0          0          0          0          0          0          0          0
  dualinfer        :       0.00       0.00      0          0          0          0          0          0          0          0          0          0
  dualsparsify     :       5.76       0.00      1          0          0          0          0          0          0          0          0          0
  gateextraction   :       0.00       0.00      0          0          0          0          0          0          0          0          0          0
  implics          :       0.00       0.00      3          0          0          0          0          0          0          0          0          0
  inttobinary      :       0.00       0.00      0          0          0          0          0          0          0          0          0          0
  qpkktref         :       0.00       0.00      0          0          0          0          0          0          0          0          0          0
  redvub           :       0.00       0.00      0          0          0          0          0          0          0          0          0          0
  sparsify         :       4.31       0.00      1          0          0          0          0          0          0          0          0        480
  stuffing         :       0.00       0.00      0          0          0          0          0          0          0          0          0          0
  trivial          :       0.00       0.00      4          0          0          0          0          0          0          0          0          0
  tworowbnd        :       0.00       0.00      0          0          0          0          0          0          0          0          0          0
  dualfix          :       0.00       0.00      4          0          0          0          0          0          0          0          0          0
  genvbounds       :       0.00       0.00      0          0          0          0          0          0          0          0          0          0
  probing          :      42.48       0.00      1          0          0          0          0          0          0          0          0          0
  pseudoobj        :       0.00       0.00      0          0          0          0          0          0          0          0          0          0
  symmetry         :       0.00       0.00      0          0          0          0          0          0          0          0          0          0
  vbounds          :       0.00       0.00      2          0          0          0          0          0          0          0          0          0
  knapsack         :      23.13       0.25      5          0          0          0          0          0        210        210        210       3600
  setppc           :       0.01       0.00      5          0          0          0          0          0          0          0          0          0
  linear           :      13.30       5.08      6      25215          0          0      25215          0      36843          0        991          0
  logicor          :       0.00       0.00      0          0          0          0          0          0          0          0          0          0
  benders          :       0.00       0.00      0          0          0          0          0          0          0          0          0          0
  components       :       2.27       0.00      1          0          0          0          0          0          0          0          0          0
  root node        :          -          -      -         20          -          -         20          -          -          -          -          -
Constraints        :     Number  MaxNumber  #Separate #Propagate    #EnfoLP    #EnfoRelax  #EnfoPS    #Check   #ResProp    Cutoffs    DomReds       Cuts    Applied      Conss   Children
  benderslp        :          0          0          0          0        519          0          0         73          0          0          0          0          0          0          0
  integral         :          0          0          0          0        519          0          0         73          0          0       2274          0          0       2513         46
  knapsack         :     522862     522862         11      15028          0          0          0         68       8968         74      10304        142          7          0          0
  setppc           :       1936+      3406         11      14954          0          0          0         55       3522         28       3524          0          0          0          0
  linear           :         16         16         11      14229          0          0          0         53          0          0          0          0          0          0          0
  logicor          :          0+       799         11       2814          0          0          0          0       1203         31        168          3          0          0          0
  benders          :          0          0          0          0          0          0          0         54          0          0          0          0          0          0          0
  countsols        :          0          0          0          0          0          0          0         54          0          0          0          0          0          0          0
  components       :          0          0          0          0          0          0          0          0          0          0          0          0          0          0          0
Constraint Timings :  TotalTime  SetupTime   Separate  Propagate     EnfoLP     EnfoPS     EnfoRelax   Check    ResProp    SB-Prop
  benderslp        :       0.00       0.00       0.00       0.00       0.00       0.00       0.00       0.00       0.00       0.00
  integral         :    3760.10       0.00       0.00       0.00    3760.09       0.00       0.00       0.01       0.00       0.00
  knapsack         :     278.43       0.25      11.14     109.51       0.00       0.00       0.00      26.68       0.01     130.84
  setppc           :      65.16       0.00       0.00      22.63       0.00       0.00       0.00       0.04       0.00      42.48
  linear           :       5.16       5.08       0.00       0.03       0.00       0.00       0.00       0.02       0.00       0.02
  logicor          :       7.44       0.00       0.00       0.56       0.00       0.00       0.00       0.00       0.00       6.87
  benders          :       0.00       0.00       0.00       0.00       0.00       0.00       0.00       0.00       0.00       0.00
  countsols        :       0.00       0.00       0.00       0.00       0.00       0.00       0.00       0.00       0.00       0.00
  components       :       0.00       0.00       0.00       0.00       0.00       0.00       0.00       0.00       0.00       0.00
Propagators        : #Propagate   #ResProp    Cutoffs    DomReds
  dualfix          :          1          0          0          0
  genvbounds       :          0          0          0          0
  nlobbt           :          0          0          0          0
  obbt             :          0          0          0          0
  probing          :          0          0          0          0
  pseudoobj        :       1301         59          0        571
  redcost          :       1109          0          0      45155
  rootredcost      :          1          0          0          0
  symmetry         :          0          0          0          0
  vbounds          :       2749          0          0          0
Propagator Timings :  TotalTime  SetupTime   Presolve  Propagate    ResProp    SB-Prop
  dualfix          :       0.00       0.00       0.00       0.00       0.00       0.00
  genvbounds       :       0.01       0.00       0.00       0.00       0.00       0.00
  nlobbt           :       0.00       0.00       0.00       0.00       0.00       0.00
  obbt             :       0.00       0.00       0.00       0.00       0.00       0.00
  probing          :      42.48       0.00      42.48       0.00       0.00       0.00
  pseudoobj        :       1.92       0.00       0.00       1.91       0.01       0.00
  redcost          :     138.89       0.00       0.00     138.89       0.00       0.00
  rootredcost      :       0.01       0.00       0.00       0.00       0.00       0.00
  symmetry         :       0.00       0.00       0.00       0.00       0.00       0.00
  vbounds          :       0.02       0.00       0.00       0.01       0.00       0.01
Conflict Analysis  :       Time      Calls    Success    DomReds  Conflicts   Literals    Reconvs ReconvLits   Dualrays   Nonzeros   LP Iters   (pool size: [10000,10000])
  propagation      :       0.02        130        118          -        266       66.3         11        8.5          -          -          -
  infeasible LP    :       0.04          7          7          -         34      172.9          0        0.0          0        0.0          0
  bound exceed. LP :    1649.99       1958       1955          -       2682       15.4         11       32.2          0        0.0       6469
  strong branching :       0.00          0          0          -          0        0.0          0        0.0          -          -          0
  pseudo solution  :       0.00          0          0          -          0        0.0          0        0.0          -          -          -
  applied globally :       0.12          -          -          0       2656       11.0          -          -          0          -          -
  applied locally  :          -          -          -          0          0        0.0          -          -          0          -          -
Separators         :   ExecTime  SetupTime      Calls  RootCalls    Cutoffs    DomReds  FoundCuts ViaPoolAdd  DirectAdd    Applied ViaPoolApp  DirectApp      Conss
  cut pool         :       0.03          -         66         21          -          -        836        605          -          -          -          -          -    (maximal pool size:        836)
  aggregation      :       6.09       0.00         41         11          0          0        149        213          0         90         90          0          0
  > cmir           :          -          -          -          -          -          -          -         91          0         45         45          0          -
  > flowcover      :          -          -          -          -          -          -          -         34          0          0          0          0          -
  > knapsackcover  :          -          -          -          -          -          -          -         88          0         45         45          0          -
  cgmip            :       0.00       0.00          0          0          0          0          0          0          0          0          0          0          0
  clique           :       0.02       0.00         11         11          0          0          0          0          0          0          0          0          0
  closecuts        :       0.00       0.00          0          0          0          0          0          0          0          0          0          0          0
  convexproj       :       0.00       0.00          0          0          0          0          0          0          0          0          0          0          0
  disjunctive      :       0.00       0.00          0          0          0          0          0          0          0          0          0          0          0
  eccuts           :       0.00       0.00          0          0          0          0          0          0          0          0          0          0          0
  gauge            :       0.00       0.00          0          0          0          0          0          0          0          0          0          0          0
  gomory           :      10.03       0.00         18         10          0          0        663        374          0         28         28          0          0
  > gomorymi       :          -          -          -          -          -          -          -        203          0          6          6          0          -
  > strongcg       :          -          -          -          -          -          -          -        171          0         22         22          0          -
  impliedbounds    :       2.88       0.00         41         11          0          0          0          0          0          0          0          0          0
  interminor       :       0.00       0.00          0          0          0          0          0          0          0          0          0          0          0
  intobj           :       0.00       0.00          0          0          0          0          0          0          0          0          0          0          0
  mcf              :       0.00       0.00          0          0          0          0          0          0          0          0          0          0          0
  minor            :       0.00       0.00          0          0          0          0          0          0          0          0          0          0          0
  mixing           :       0.00       0.00          0          0          0          0          0          0          0          0          0          0          0
  oddcycle         :       0.00       0.00          0          0          0          0          0          0          0          0          0          0          0
  rapidlearning    :       0.71       0.00          0          0          0          0          0          0          0          0          0          0          0
  rlt              :       0.00       0.00         10         10          0          0          0          0          0          0          0          0          0
  zerohalf         :       0.63       0.00         19         11          0          0         26         18          2          8          8          0          0
Cutselectors       :   ExecTime  SetupTime      Calls  RootCalls   Selected     Forced   Filtered  RootSelec   RootForc   RootFilt 
  hybrid           :       0.00       0.00         37         11        133          0        619         71          0        311
Pricers            :   ExecTime  SetupTime      Calls       Vars
  problem variables:       0.00          -          0          0
Branching Rules    :   ExecTime  SetupTime   BranchLP  BranchExt   BranchPS    Cutoffs    DomReds       Cuts      Conss   Children
  allfullstrong    :       0.00       0.00          0          0          0          0          0          0          0          0
  cloud            :       0.00       0.00          0          0          0          0          0          0          0          0
  distribution     :       0.00       0.00          0          0          0          0          0          0          0          0
  fullstrong       :       0.00       0.00          0          0          0          0          0          0          0          0
  inference        :       0.00       0.00          0          0          0          0          0          0          0          0
  leastinf         :       0.00       0.00          0          0          0          0          0          0          0          0
  lookahead        :       0.00       0.00          0          0          0          0          0          0          0          0
  mostinf          :       0.00       0.00          0          0          0          0          0          0          0          0
  multaggr         :       0.00       0.00          0          0          0          0          0          0          0          0
  nodereopt        :       0.00       0.00          0          0          0          0          0          0          0          0
  pscost           :       0.00       0.00          0          0          0          0          0          0          0          0
  random           :       0.00       0.00          0          0          0          0          0          0          0          0
  relpscost        :    3760.09       0.00        519          0          0          0       2274          0       2538         46
  vanillafullstrong:       0.00       0.00          0          0          0          0          0          0          0          0
Primal Heuristics  :   ExecTime  SetupTime      Calls      Found       Best
  LP solutions     :       0.00          -          -          0          0
  relax solutions  :       0.00          -          -          0          0
  pseudo solutions :       0.00          -          -          0          0
  strong branching :       0.02          -          -          0          0
  actconsdiving    :       0.00       0.00          0          0          0
  adaptivediving   :       0.00       0.00          0          0          0
  alns             :       3.54       0.00          1          0          0
  bound            :       0.00       0.00          0          0          0
  clique           :      19.63       0.00          1          0          0
  coefdiving       :       0.00       0.00          0          0          0
  completesol      :       0.00       0.00          0          0          0
  conflictdiving   :       5.90       0.00          1          0          0
  crossover        :       0.00       0.00          0          0          0
  dins             :       0.00       0.00          0          0          0
  distributiondivin:       0.02       0.00          0          0          0
  dps              :       0.00       0.00          0          0          0
  dualval          :       0.00       0.00          0          0          0
  farkasdiving     :       0.00       0.00          0          0          0
  feaspump         :       0.00       0.00          0          0          0
  fixandinfer      :       0.00       0.00          0          0          0
  fracdiving       :       0.00       0.00          0          0          0
  gins             :       0.00       0.00          0          0          0
  guideddiving     :       0.00       0.00          0          0          0
  indicator        :       0.00       0.00          0          0          0
  intdiving        :       0.00       0.00          0          0          0
  intshifting      :       0.00       0.00          0          0          0
  linesearchdiving :       0.00       0.00          0          0          0
  localbranching   :       0.00       0.00          0          0          0
  locks            :      30.93       0.00          1          0          0
  lpface           :      34.07       0.00          1          0          0
  mpec             :       0.00       0.00          0          0          0
  multistart       :       0.00       0.00          0          0          0
  mutation         :       0.00       0.00          0          0          0
  nlpdiving        :       0.00       0.00          0          0          0
  objpscostdiving  :       0.00       0.00          0          0          0
  octane           :       0.00       0.00          0          0          0
  ofins            :       0.00       0.00          0          0          0
  oneopt           :       1.16       0.00          3          0          0
  padm             :       0.00       0.00          0          0          0
  proximity        :       0.00       0.00          0          0          0
  pscostdiving     :       0.00       0.00          0          0          0
  randrounding     :      13.85       0.00         12          0          0
  rens             :       3.49       0.00          1          0          0
  reoptsols        :       0.00       0.00          0          0          0
  repair           :       0.00       0.00          0          0          0
  rins             :       0.00       0.00          0          0          0
  rootsoldiving    :       0.00       0.00          0          0          0
  rounding         :       3.74       0.00        146          0          0
  shiftandpropagate:      27.31       0.00          1          0          0
  shifting         :      30.34       0.00         62         53          2
  simplerounding   :       0.00       0.00          0          0          0
  subnlp           :       0.00       0.00          0          0          0
  trivial          :       0.69       0.00          2          0          0
  trivialnegation  :       0.00       0.00          0          0          0
  trustregion      :       0.00       0.00          0          0          0
  trysol           :       0.00       0.00          0          0          0
  twoopt           :       0.00       0.00          0          0          0
  undercover       :       0.00       0.00          0          0          0
  vbounds          :      29.81       0.00          1          0          0
  veclendiving     :       0.00       0.00          0          0          0
  zeroobj          :       0.00       0.00          0          0          0
  zirounding       :       0.60       0.00         23          0          0
  other solutions  :          -          -          -          0          -
LP                 :       Time      Calls Iterations  Iter/call   Iter/sec  Time-0-It Calls-0-It    ItLimit
  primal LP        :      38.86         10          0       0.00       0.00      38.86         10
  dual LP          :     343.12        605       5128       8.93      14.95       7.39         31
  lex dual LP      :       0.00          0          0       0.00          -
  barrier LP       :       0.00          0          0       0.00          -       0.00          0
  resolve instable :       0.00          0          0       0.00          -
  diving/probing LP:     182.28         17         62       3.65       0.34
  strong branching :    1546.83       2356      36768      15.61      23.77          -          -        112
    (at root node) :          -         14        884      63.14          -
  conflict analysis:    1631.88        657       6469       9.85       3.96
B&B Tree           :
  number of runs   :          1
  nodes            :         47 (23 internal, 24 leaves)
  feasible leaves  :          0
  infeas. leaves   :         22
  objective leaves :          2
  nodes (total)    :         47 (23 internal, 24 leaves)
  nodes left       :          0
  max depth        :         16
  max depth (total):         16
  backtracks       :          7 (14.9%)
  early backtracks :          0 (0.0%)
  nodes exc. ref.  :          0 (0.0%)
  delayed cutoffs  :          0
  repropagations   :         33 (138 domain reductions, 0 cutoffs)
  avg switch length:       5.83
  switching time   :      89.99
Root Node          :
  First LP value   : +3.41000000000000e+02
  First LP Iters   :          2 (0.08 Iter/sec)
  First LP Time    :      24.76
  Final Dual Bound : +3.41000000000000e+02
  Final Root Iters :        304
  Root LP Estimate : +3.41290646723894e+02
Solution           :
  Solutions found  :         53 (2 improvements)
  First Solution   : +3.74000000000000e+02   (in run 1, after 1 nodes, 238.12 seconds, depth 0, found by <shifting>)
  Gap First Sol.   :       9.68 %
  Gap Last Sol.    :       6.45 %
  Primal Bound     : +3.63000000000000e+02   (in run 1, after 19 nodes, 2351.77 seconds, depth 10, found by <shifting>)
  Dual Bound       : +3.63000000000000e+02
  Gap              :       0.00 %
Integrals          :      Total       Avg%
  primal-dual      :   50633.07      10.49
  primal-ref       :          -          - (not evaluated)
  dual-ref         :          -          - (not evaluated)
written solution information to file <results/final_miplib_symretope_if_extended_generating_set_cpx_v802__settings_final_nosym_norestarts__3__mspp16.mps.gz.sol>
@04 1686663348
